# Random Circle Problem
param d := 0.05; 
param n := 10; 
param radius := 2.00; 
param v0 := 
1 5.68
2 5.07
3 5.01
4 5.16
5 4.95
6 5.43
7 5.63
8 5.53
9 5.43
10 5.29
;
param cap := 
1 2.76579
2 4.07629
3 4.39290
4 5.17002
5 5.15729
6 0.31596
7 0.20739
8 1.02041
9 1.79237
10 2.45738
;
param x0 := 
1 2.00
2 1.62
3 0.62
4 -0.62
5 -1.62
6 -2.00
7 -1.62
8 -0.62
9 0.62
10 1.62
;
param y0 := 
1 -0.00
2 1.18
3 1.90
4 1.90
5 1.18
6 0.00
7 -1.18
8 -1.90
9 -1.90
10 -1.18
;
